Gurobi Optimizer version 9.1.2 build v9.1.2rc0 (linux64)
Thread count: 36 physical cores, 72 logical processors, using up to 32 threads
Optimize a model with 12 rows, 57 columns and 590 nonzeros
Model fingerprint: 0xf32eec78
Model has 47 quadratic constraints
Coefficient statistics:
  Matrix range     [2e-05, 3e+00]
  QMatrix range    [1e+00, 1e+00]
  QLMatrix range   [1e+00, 1e+00]
  Objective range  [8e-03, 7e-01]
  Bounds range     [1e+00, 1e+00]
  RHS range        [1e+00, 1e+00]
Presolve removed 9 rows and 0 columns

Continuous model is non-convex -- solving as a MIP.

Presolve removed 9 rows and 0 columns
Presolve time: 0.00s
Presolved: 189 rows, 57 columns, 443 nonzeros
Presolved model has 47 bilinear constraint(s)
Variable types: 57 continuous, 0 integer (0 binary)

Root relaxation: objective -1.743721e+00, 44 iterations, 0.00 seconds

    Nodes    |    Current Node    |     Objective Bounds      |     Work
 Expl Unexpl |  Obj  Depth IntInf | Incumbent    BestBd   Gap | It/Node Time

     0     0   -1.74372    0   38          -   -1.74372      -     -    0s
H    0     0                       0.6147548   -1.74372   384%     -    0s
     0     0   -1.64739    0    1    0.61475   -1.64739   368%     -    0s
H    0     0                      -1.6450460   -1.64739  0.14%     -    0s
     0     0     cutoff    0        -1.64505   -1.64505  0.00%     -    0s

Cutting planes:
  RLT: 25
  BQP: 3

Explored 1 nodes (76 simplex iterations) in 0.01 seconds
Thread count was 32 (of 72 available processors)

Solution count 2: -1.64505 0.614755 
No other solutions better than -1.64505

Optimal solution found (tolerance 1.00e-04)
Best objective -1.645045978473e+00, best bound -1.645045978473e+00, gap 0.0000%

User-callback calls 78, time in user-callback 0.00 sec
Gurobi Optimizer version 9.1.2 build v9.1.2rc0 (linux64)
Thread count: 36 physical cores, 72 logical processors, using up to 32 threads
Optimize a model with 60 rows, 312 columns and 16100 nonzeros
Model fingerprint: 0xef4aec82
Model has 262 quadratic constraints
Coefficient statistics:
  Matrix range     [4e-07, 7e+00]
  QMatrix range    [1e+00, 1e+00]
  QLMatrix range   [1e+00, 1e+00]
  Objective range  [3e-03, 1e+00]
  Bounds range     [1e+00, 1e+00]
  RHS range        [1e+00, 1e+00]
Presolve removed 15 rows and 0 columns

Continuous model is non-convex -- solving as a MIP.

Presolve removed 15 rows and 0 columns
Presolve time: 0.01s
Presolved: 1081 rows, 312 columns, 13446 nonzeros
Presolved model has 262 bilinear constraint(s)
Variable types: 312 continuous, 0 integer (0 binary)

Root relaxation: objective -1.912337e+01, 358 iterations, 0.02 seconds

    Nodes    |    Current Node    |     Objective Bounds      |     Work
 Expl Unexpl |  Obj  Depth IntInf | Incumbent    BestBd   Gap | It/Node Time

     0     0  -19.12337    0  156          -  -19.12337      -     -    0s
     0     0  -17.92372    0   71          -  -17.92372      -     -    0s
     0     0  -17.87208    0  119          -  -17.87208      -     -    0s
     0     0  -17.83141    0  115          -  -17.83141      -     -    0s
     0     0  -17.83099    0  115          -  -17.83099      -     -    0s
     0     0  -17.81858    0  115          -  -17.81858      -     -    0s
     0     0  -17.81729    0  115          -  -17.81729      -     -    0s
     0     0  -17.81440    0  115          -  -17.81440      -     -    0s
     0     0  -17.81350    0  115          -  -17.81350      -     -    0s
     0     0  -17.81081    0  115          -  -17.81081      -     -    0s
     0     0  -17.80961    0  111          -  -17.80961      -     -    0s
     0     0  -17.80960    0  111          -  -17.80960      -     -    0s
     0     0  -17.80960    0  111          -  -17.80960      -     -    0s
H    0     0                     -16.8732629  -17.80960  5.55%     -    0s
     0     2  -17.80960    0  111  -16.87326  -17.80960  5.55%     -    0s
* 1431   693              42     -16.8734523  -17.24545  2.20%  61.7    1s
* 1544   741              57     -16.8785140  -17.24545  2.17%  60.4    1s
* 1545   741              57     -16.8786870  -17.24545  2.17%  60.4    1s
* 1550   741              57     -16.8787037  -17.24545  2.17%  60.2    1s
* 1625   783              81     -16.9210999  -17.24545  1.92%  59.7    2s
* 2368  1082              53     -16.9214250  -17.20734  1.69%  54.9    2s
* 2439  1153              62     -16.9219573  -17.20734  1.69%  54.3    2s
* 2442  1153              62     -16.9225219  -17.20734  1.68%  54.3    2s
* 2591  1214              62     -16.9225233  -17.20734  1.68%  53.4    2s
* 2594  1214              62     -16.9225737  -17.20734  1.68%  53.3    2s
* 2595  1214              62     -16.9225820  -17.20734  1.68%  53.3    2s
* 2866  1399              69     -16.9502708  -17.17095  1.30%  51.7    2s
* 2867  1399              69     -16.9502708  -17.17095  1.30%  51.6    2s
* 3771  1681              51     -16.9530559  -17.12376  1.01%  47.4    3s
* 3774  1681              52     -16.9530993  -17.12376  1.01%  47.4    3s
* 3983  1776              50     -16.9536371  -17.12376  1.00%  46.4    3s
* 4088  1861              56     -16.9557360  -17.12376  0.99%  46.0    3s
* 4480  1821              57     -16.9565422  -17.12376  0.99%  44.4    3s
* 4847  1880              46     -16.9565501  -17.11643  0.94%  43.1    3s
* 5103  1915              51     -16.9568079  -17.11643  0.94%  42.5    3s
* 5353  1884              54     -16.9667983  -17.11643  0.88%  41.6    3s
  7648  1169  -16.97172   35   21  -16.96680  -17.06576  0.58%  42.4    5s
*10436   618              71     -16.9669321  -17.06576  0.58%  41.3    5s
*10440   618              72     -16.9669400  -17.06576  0.58%  41.3    5s
*11134   744              75     -16.9669765  -17.06576  0.58%  40.6    6s
*11137   744              74     -16.9670046  -17.06576  0.58%  40.6    6s
*11138   744              74     -16.9670051  -17.06576  0.58%  40.6    6s
*11752   821              77     -16.9670495  -17.06576  0.58%  40.0    6s
*11757   821              77     -16.9671386  -17.06576  0.58%  40.0    6s
*11789   821              76     -16.9671740  -17.06576  0.58%  39.9    6s
*11800   821              73     -16.9671876  -17.06576  0.58%  39.9    6s
*18278  1475              65     -16.9672001  -17.01410  0.28%  34.1    7s
*18279  1475              64     -16.9672126  -17.01410  0.28%  34.1    7s
*20196  1575              67     -16.9676994  -17.00572  0.22%  32.9    8s
*20197  1575              67     -16.9678930  -17.00572  0.22%  32.9    8s
*25201  1695              76     -16.9678934  -16.99289  0.15%  30.0    9s
*25697  1766              76     -16.9680784  -16.99152  0.14%  29.8    9s
*26563  1804              76     -16.9681382  -16.99136  0.14%  29.4    9s
*30993  2226              64     -16.9682954  -16.98565  0.10%  27.2    9s
 31025  2258     cutoff   42       -16.96830  -16.98553  0.10%  27.1   10s
*31689  2202              61     -16.9683910  -16.98411  0.09%  26.8   10s
*31690  2194              61     -16.9684041  -16.98411  0.09%  26.8   10s
*31693  2190              61     -16.9684107  -16.98411  0.09%  26.8   10s
*31696  2188              61     -16.9684196  -16.98411  0.09%  26.8   10s
*31698  2180              62     -16.9684260  -16.98411  0.09%  26.8   10s
*31699  2180              62     -16.9684264  -16.98411  0.09%  26.8   10s
*34194  2129              71     -16.9686944  -16.98137  0.07%  25.8   10s
*35379  2081              76     -16.9688178  -16.98028  0.07%  25.4   10s
*40219  2274              67     -16.9688543  -16.97685  0.05%  23.7   11s
*40221  2272              66     -16.9688563  -16.97685  0.05%  23.7   11s
*43296  2316              79     -16.9688584  -16.97530  0.04%  22.7   11s
*48762  2308              79     -16.9688688  -16.97303  0.02%  21.1   12s

Explored 61085 nodes (1115960 simplex iterations) in 14.15 seconds
Thread count was 32 (of 72 available processors)

Solution count 10: -16.9689 -16.9689 -16.9689 ... -16.9684

Optimal solution found (tolerance 1.00e-04)
Best objective -1.696886882195e+01, best bound -1.697019350823e+01, gap 0.0078%

User-callback calls 123398, time in user-callback 0.03 sec



objective value: -16.968868821951975
objective bound: -16.97019350823009
x_opt: [1.0, 0.9383107817768589, 0.0, 0.3857327300386662, 0.0, 0.0, 1.0, 0.0, 0.0, 0.0, 1.0, 0.0, 1.0, 1.0, 0.4413452322452878, 1.0, 0.0, 1.0, 0.0, 0.0, 0.0, 0.15867727155594552, 0.0, 0.5325943576312756, 0.0, 0.6624201964785817, 0.0, 1.0, 0.0, 0.0, 1.0, 1.0, 0.0, 0.5638405652244359, 1.0, 0.910127595160924, 0.0, 1.0, 0.0, 1.0, 1.0, 0.0, 0.9169039319185577, 0.06637264734604777, 1.0826195090692774e-8, 0.012979474436970754, 0.3689715593976683, 0.4470312248022891, 0.12036719975587987, 0.0]
GUROBI solution time: 14.146422147750854




